\ Model _copy
\ LP format - for model browsing. Use MPS format to capture full model detail.
Maximize
  + Constant
Subject To
 R0: X_1 >= 87.55704218235789
 R1: X_1 <= 111.0078480731378
 R2: X_2 >= 26.8963353629579
 R3: X_2 <= 27.0959333522998
 R4: X_3 >= -2.031080187646795
 R5: X_3 <= -2.030775308904387
 R6: X_4 >= 1.43489435858718
 R7: X_4 <= 2.899158315993223
 R8: X_5 >= -7.042576263386914
 R9: X_5 <= -6.348564899351555
 R10: X_1 <= 10
Bounds
 X_1 free
 X_2 free
 X_3 free
 X_4 free
 X_5 free
 Constant = 1
End
